% demand
num_movements = 31;
loading_factor = [1950, 850, 1350, 1950, 1400, 1600, 1250, 1650, 1150, 800, 1750, 1450, 1300, 950, 1800, 1000, 850, 900, 2000, 1400, 1150, 1050, 1000, 1750, 850, 1200, 1500, 1000, 1950, 1200, 1250];
pickup_time = [0, 0, 0, 0, 0, 0, 0, 1, 2, 2, 2, 2, 2, 2, 3, 3, 3, 3, 4, 4, 4, 6, 6, 7, 7, 8, 8, 8, 8, 9, 9];
delivery_time = [3, 1, 1, 1, 1, 1, 1, 5, 3, 5, 4, 3, 8, 7, 4, 4, 7, 9, 5, 7, 8, 10, 7, 10, 8, 10, 10, 9, 9, 10, 10];

% transporter definition
total_capacity = 11000;
num_decks = 4;
capacity = [3000, 3000, 1000, 4000];

% ways out of decks
num_ways_out = 2;
paths_out = array3d(decks, ways_out, decks, [
% ways out of deck d1
2, 4, 0, 0, 3, 4, 0, 0, 

% ways out of deck d2
4, 0, 0, 0, 0, 0, 0, 0,	

% ways out of deck d3
4, 0, 0, 0, 0, 0, 0, 0,	

% ways out of deck d4
0, 0, 0, 0,	0, 0, 0, 0,	

]);

